\ SCIP STATISTICS
\   Problem name     : CapacitatedFacilityLocation-20-10
\   Variables        : 210 (210 binary, 0 integer, 0 implicit integer, 0 continuous)
\   Constraints      : 231
Minimize
 Obj: +866.022811023216 x0 +1453.10875480744 x1 +1191.44336051048 x2 +1015.72004246815 x3 +1375.96896514821 x4
      +1223.15353299546 x5 +1106.70782520313 x6 +722.958514031233 x7 +611.607775323564 x8 +1355.87323314952 x9
      +46.274033601636 x10 +26.8928255948469 x11 +18.7207475378106 x12 +16.625529016436 x13 +32.0638668220449 x14
      +39.3659819604421 x15 +57.0267910081755 x16 +49.4576456252934 x17 +32.883005873057 x18 +6.55167094573715 x19
      +11.7287106436764 x20 +45.2745063510909 x21 +52.0057449416684 x22 +62.8091579323197 x23 +31.5815471225228 x24
      +41.7761445202827 x25 +19.3219051915766 x26 +14.6016970545255 x27 +60.9604028516508 x28 +69.5589122176098 x29
      +47.5175326013941 x30 +187.18440407917 x31 +186.955983180323 x32 +229.277667407852 x33 +121.625674888725 x34
      +128.27790086067 x35 +126.538773424767 x36 +11.7562109652025 x37 +211.701804009907 x38 +264.618524409569 x39
      +97.9151291732527 x40 +83.0604817041222 x41 +24.5227982817491 x42 +13.6255540029228 x43 +73.8107071067684 x44
      +52.3706818602636 x45 +138.21605298676 x46 +95.3580392282386 x47 +30.7592570678604 x48 +40.6255193715834 x49
      +20.2978057208512 x50 +37.1709477006869 x51 +41.1997593584574 x52 +58.2627115696226 x53 +13.60160957021 x54
      +42.7516104702772 x55 +48.7748278110193 x56 +29.6445667945601 x57 +63.7550479711592 x58 +66.6934619724038 x59
      +188.228048206706 x60 +187.023740015068 x61 +67.5921419060609 x62 +70.3160873485453 x63 +151.39448849493 x64
      +72.9845989691352 x65 +281.356456951381 x66 +174.592577796686 x67 +49.4852019447012 x68 +127.498726208711 x69
      +53.4296082586343 x70 +24.4657900108366 x71 +52.1283890347856 x72 +60.6202869189392 x73 +38.5855972307245 x74
      +72.3403629775611 x75 +51.3431977324939 x76 +65.1137050898811 x77 +77.5967937698688 x78 +53.8724548043974 x79
      +71.7587078454989 x80 +133.423948634177 x81 +99.2519025901522 x82 +118.59113692207 x83 +92.0023404213943 x84
      +35.4390264708033 x85 +131.153113616293 x86 +43.8875790853832 x87 +91.4772732039422 x88 +149.265004326172 x89
      +30.9744802658493 x90 +12.5210620486334 x91 +34.4759944871406 x92 +41.9552502528311 x93 +20.9951762348793 x94
      +47.0706379150997 x95 +29.7380479229887 x96 +39.9152310798961 x97 +52.8524049953156 x98 +38.8777883734775 x99
      +11.0027057109384 x100 +41.0054763269478 x101 +42.7381474366069 x102 +51.6006389334135 x103 +27.8909367323176 x104
      +30.7230707758204 x105 +23.692111497739 x106 +6.69320958676761 x107 +48.0298992385669 x108 +58.6272427212733 x109
      +105.449881846007 x110 +41.9534674592097 x111 +40.2600022301215 x112 +59.6726027277754 x113 +56.4966317750632 x114
      +104.53280417984 x115 +139.024660872868 x116 +120.460473577076 x117 +104.394146166875 x118 +50.1585250894137 x119
      +160.773018210885 x120 +79.8208010065756 x121 +46.2973609294291 x122 +65.1691964081712 x123 +94.8200785138888 x124
      +142.869645779326 x125 +212.54979346221 x126 +177.333390690966 x127 +133.01635368994 x128 +49.479020488773 x129
      +181.758342256762 x130 +83.0812355089243 x131 +121.362548588505 x132 +132.45941372016 x133 +125.413415033573 x134
      +197.921568089647 x135 +199.835205434316 x136 +207.042418287319 x137 +192.200593941323 x138 +100.763008586168 x139
      +88.243761550817 x140 +137.692990189814 x141 +94.5371030914173 x142 +133.830012088846 x143 +79.4039665121269 x144
      +66.2956728859443 x145 +177.853949148349 x146 +80.9071674636907 x147 +128.272625329857 x148 +170.865136734869 x149
      +176.951825284779 x150 +194.079999897818 x151 +102.009258806757 x152 +92.3631308555913 x153 +162.11801599244 x154
      +62.4202757108222 x155 +251.684596014628 x156 +155.187188121226 x157 +19.6517291273852 x158 +137.885032751674 x159
      +25.6988385531017 x160 +41.8236413966913 x161 +32.2765634101841 x162 +46.4737339539114 x163 +21.7288618191445 x164
      +27.1746029381106 x165 +54.9610519679315 x166 +26.1552754272615 x167 +47.1655228275537 x168 +57.4092154976016 x169
      +73.4251382275689 x170 +41.4293888035061 x171 +110.513388505273 x172 +146.332280211151 x173 +35.2124674873487 x174
      +143.834372207705 x175 +90.3011784520258 x176 +109.283318018114 x177 +177.705358027475 x178 +147.681318130318 x179
      +31.1739390248053 x180 +31.8485602325651 x181 +58.7687118474504 x182 +71.7723298643667 x183 +30.2949020381298 x184
      +66.2188115043707 x185 +20.2837877801548 x186 +45.4360617286281 x187 +81.3743742854744 x188 +72.1575567132845 x189
      +134.964586959238 x190 +105.094091406544 x191 +186.873019701378 x192 +217.917345625069 x193 +121.490974662772 x194
      +219.848595888735 x195 +98.1015622365434 x196 +171.489332557695 x197 +252.377009890957 x198 +209.795264938028 x199
      +49.3564878838026 x200 +122.806236138194 x201 +107.611854694338 x202 +129.000146173604 x203 +83.512730101802 x204
      +58.8203573286966 x205 +98.3222812247954 x206 +17.9435124371155 x207 +109.648578636971 x208 +153.906597452223 x209
Subject to
 c0: +1 x10 +1 x11 +1 x12 +1 x13 +1 x14 +1 x15 +1 x16 +1 x17 +1 x18 +1 x19 >= +1
 c1: +1 x20 +1 x21 +1 x22 +1 x23 +1 x24 +1 x25 +1 x26 +1 x27 +1 x28 +1 x29 >= +1
 c2: +1 x30 +1 x31 +1 x32 +1 x33 +1 x34 +1 x35 +1 x36 +1 x37 +1 x38 +1 x39 >= +1
 c3: +1 x40 +1 x41 +1 x42 +1 x43 +1 x44 +1 x45 +1 x46 +1 x47 +1 x48 +1 x49 >= +1
 c4: +1 x50 +1 x51 +1 x52 +1 x53 +1 x54 +1 x55 +1 x56 +1 x57 +1 x58 +1 x59 >= +1
 c5: +1 x60 +1 x61 +1 x62 +1 x63 +1 x64 +1 x65 +1 x66 +1 x67 +1 x68 +1 x69 >= +1
 c6: +1 x70 +1 x71 +1 x72 +1 x73 +1 x74 +1 x75 +1 x76 +1 x77 +1 x78 +1 x79 >= +1
 c7: +1 x80 +1 x81 +1 x82 +1 x83 +1 x84 +1 x85 +1 x86 +1 x87 +1 x88 +1 x89 >= +1
 c8: +1 x90 +1 x91 +1 x92 +1 x93 +1 x94 +1 x95 +1 x96 +1 x97 +1 x98 +1 x99 >= +1
 c9: +1 x100 +1 x101 +1 x102 +1 x103 +1 x104 +1 x105 +1 x106 +1 x107 +1 x108 +1 x109 >= +1
 c10: +1 x110 +1 x111 +1 x112 +1 x113 +1 x114 +1 x115 +1 x116 +1 x117 +1 x118 +1 x119 >= +1
 c11: +1 x120 +1 x121 +1 x122 +1 x123 +1 x124 +1 x125 +1 x126 +1 x127 +1 x128 +1 x129 >= +1
 c12: +1 x130 +1 x131 +1 x132 +1 x133 +1 x134 +1 x135 +1 x136 +1 x137 +1 x138 +1 x139 >= +1
 c13: +1 x140 +1 x141 +1 x142 +1 x143 +1 x144 +1 x145 +1 x146 +1 x147 +1 x148 +1 x149 >= +1
 c14: +1 x150 +1 x151 +1 x152 +1 x153 +1 x154 +1 x155 +1 x156 +1 x157 +1 x158 +1 x159 >= +1
 c15: +1 x160 +1 x161 +1 x162 +1 x163 +1 x164 +1 x165 +1 x166 +1 x167 +1 x168 +1 x169 >= +1
 c16: +1 x170 +1 x171 +1 x172 +1 x173 +1 x174 +1 x175 +1 x176 +1 x177 +1 x178 +1 x179 >= +1
 c17: +1 x180 +1 x181 +1 x182 +1 x183 +1 x184 +1 x185 +1 x186 +1 x187 +1 x188 +1 x189 >= +1
 c18: +1 x190 +1 x191 +1 x192 +1 x193 +1 x194 +1 x195 +1 x196 +1 x197 +1 x198 +1 x199 >= +1
 c19: +1 x200 +1 x201 +1 x202 +1 x203 +1 x204 +1 x205 +1 x206 +1 x207 +1 x208 +1 x209 >= +1
 c20: +6 x10 +8 x20 +34 x30 +16 x40 +12 x50 +35 x60 +8 x70 +22 x80 +6 x90 +7 x100 +20 x110 +28 x120 +23 x130
  +33 x140 +27 x150 +11 x160 +25 x170 +9 x180 +23 x190 +20 x200 -114 x0 <= +0
 c21: +6 x11 +8 x21 +34 x31 +16 x41 +12 x51 +35 x61 +8 x71 +22 x81 +6 x91 +7 x101 +20 x111 +28 x121 +23 x131
  +33 x141 +27 x151 +11 x161 +25 x171 +9 x181 +23 x191 +20 x201 -290 x1 <= +0
 c22: +6 x12 +8 x22 +34 x32 +16 x42 +12 x52 +35 x62 +8 x72 +22 x82 +6 x92 +7 x102 +20 x112 +28 x122 +23 x132
  +33 x142 +27 x152 +11 x162 +25 x172 +9 x182 +23 x192 +20 x202 -240 x2 <= +0
 c23: +6 x13 +8 x23 +34 x33 +16 x43 +12 x53 +35 x63 +8 x73 +22 x83 +6 x93 +7 x103 +20 x113 +28 x123 +23 x133
  +33 x143 +27 x153 +11 x163 +25 x173 +9 x183 +23 x193 +20 x203 -160 x3 <= +0
 c24: +6 x14 +8 x24 +34 x34 +16 x44 +12 x54 +35 x64 +8 x74 +22 x84 +6 x94 +7 x104 +20 x114 +28 x124 +23 x134
  +33 x144 +27 x154 +11 x164 +25 x174 +9 x184 +23 x194 +20 x204 -268 x4 <= +0
 c25: +6 x15 +8 x25 +34 x35 +16 x45 +12 x55 +35 x65 +8 x75 +22 x85 +6 x95 +7 x105 +20 x115 +28 x125 +23 x135
  +33 x145 +27 x155 +11 x165 +25 x175 +9 x185 +23 x195 +20 x205 -198 x5 <= +0
 c26: +6 x16 +8 x26 +34 x36 +16 x46 +12 x56 +35 x66 +8 x76 +22 x86 +6 x96 +7 x106 +20 x116 +28 x126 +23 x136
  +33 x146 +27 x156 +11 x166 +25 x176 +9 x186 +23 x196 +20 x206 -209 x6 <= +0
 c27: +6 x17 +8 x27 +34 x37 +16 x47 +12 x57 +35 x67 +8 x77 +22 x87 +6 x97 +7 x107 +20 x117 +28 x127 +23 x137
  +33 x147 +27 x157 +11 x167 +25 x177 +9 x187 +23 x197 +20 x207 -77 x7 <= +0
 c28: +6 x18 +8 x28 +34 x38 +16 x48 +12 x58 +35 x68 +8 x78 +22 x88 +6 x98 +7 x108 +20 x118 +28 x128 +23 x138
  +33 x148 +27 x158 +11 x168 +25 x178 +9 x188 +23 x198 +20 x208 -51 x8 <= +0
 c29: +6 x19 +8 x29 +34 x39 +16 x49 +12 x59 +35 x69 +8 x79 +22 x89 +6 x99 +7 x109 +20 x119 +28 x129 +23 x139
  +33 x149 +27 x159 +11 x169 +25 x179 +9 x189 +23 x199 +20 x209 -257 x9 <= +0
 c30: +114 x0 +290 x1 +240 x2 +160 x3 +268 x4 +198 x5 +209 x6 +77 x7 +51 x8 +257 x9 >= +373
 c31: +1 x10 -1 x0 <= +0
 c32: +1 x11 -1 x1 <= +0
 c33: +1 x12 -1 x2 <= +0
 c34: +1 x13 -1 x3 <= +0
 c35: +1 x14 -1 x4 <= +0
 c36: +1 x15 -1 x5 <= +0
 c37: +1 x16 -1 x6 <= +0
 c38: +1 x17 -1 x7 <= +0
 c39: +1 x18 -1 x8 <= +0
 c40: +1 x19 -1 x9 <= +0
 c41: +1 x20 -1 x0 <= +0
 c42: +1 x21 -1 x1 <= +0
 c43: +1 x22 -1 x2 <= +0
 c44: +1 x23 -1 x3 <= +0
 c45: +1 x24 -1 x4 <= +0
 c46: +1 x25 -1 x5 <= +0
 c47: +1 x26 -1 x6 <= +0
 c48: +1 x27 -1 x7 <= +0
 c49: +1 x28 -1 x8 <= +0
 c50: +1 x29 -1 x9 <= +0
 c51: +1 x30 -1 x0 <= +0
 c52: +1 x31 -1 x1 <= +0
 c53: +1 x32 -1 x2 <= +0
 c54: +1 x33 -1 x3 <= +0
 c55: +1 x34 -1 x4 <= +0
 c56: +1 x35 -1 x5 <= +0
 c57: +1 x36 -1 x6 <= +0
 c58: +1 x37 -1 x7 <= +0
 c59: +1 x38 -1 x8 <= +0
 c60: +1 x39 -1 x9 <= +0
 c61: +1 x40 -1 x0 <= +0
 c62: +1 x41 -1 x1 <= +0
 c63: +1 x42 -1 x2 <= +0
 c64: +1 x43 -1 x3 <= +0
 c65: +1 x44 -1 x4 <= +0
 c66: +1 x45 -1 x5 <= +0
 c67: +1 x46 -1 x6 <= +0
 c68: +1 x47 -1 x7 <= +0
 c69: +1 x48 -1 x8 <= +0
 c70: +1 x49 -1 x9 <= +0
 c71: +1 x50 -1 x0 <= +0
 c72: +1 x51 -1 x1 <= +0
 c73: +1 x52 -1 x2 <= +0
 c74: +1 x53 -1 x3 <= +0
 c75: +1 x54 -1 x4 <= +0
 c76: +1 x55 -1 x5 <= +0
 c77: +1 x56 -1 x6 <= +0
 c78: +1 x57 -1 x7 <= +0
 c79: +1 x58 -1 x8 <= +0
 c80: +1 x59 -1 x9 <= +0
 c81: +1 x60 -1 x0 <= +0
 c82: +1 x61 -1 x1 <= +0
 c83: +1 x62 -1 x2 <= +0
 c84: +1 x63 -1 x3 <= +0
 c85: +1 x64 -1 x4 <= +0
 c86: +1 x65 -1 x5 <= +0
 c87: +1 x66 -1 x6 <= +0
 c88: +1 x67 -1 x7 <= +0
 c89: +1 x68 -1 x8 <= +0
 c90: +1 x69 -1 x9 <= +0
 c91: +1 x70 -1 x0 <= +0
 c92: +1 x71 -1 x1 <= +0
 c93: +1 x72 -1 x2 <= +0
 c94: +1 x73 -1 x3 <= +0
 c95: +1 x74 -1 x4 <= +0
 c96: +1 x75 -1 x5 <= +0
 c97: +1 x76 -1 x6 <= +0
 c98: +1 x77 -1 x7 <= +0
 c99: +1 x78 -1 x8 <= +0
 c100: +1 x79 -1 x9 <= +0
 c101: +1 x80 -1 x0 <= +0
 c102: +1 x81 -1 x1 <= +0
 c103: +1 x82 -1 x2 <= +0
 c104: +1 x83 -1 x3 <= +0
 c105: +1 x84 -1 x4 <= +0
 c106: +1 x85 -1 x5 <= +0
 c107: +1 x86 -1 x6 <= +0
 c108: +1 x87 -1 x7 <= +0
 c109: +1 x88 -1 x8 <= +0
 c110: +1 x89 -1 x9 <= +0
 c111: +1 x90 -1 x0 <= +0
 c112: +1 x91 -1 x1 <= +0
 c113: +1 x92 -1 x2 <= +0
 c114: +1 x93 -1 x3 <= +0
 c115: +1 x94 -1 x4 <= +0
 c116: +1 x95 -1 x5 <= +0
 c117: +1 x96 -1 x6 <= +0
 c118: +1 x97 -1 x7 <= +0
 c119: +1 x98 -1 x8 <= +0
 c120: +1 x99 -1 x9 <= +0
 c121: +1 x100 -1 x0 <= +0
 c122: +1 x101 -1 x1 <= +0
 c123: +1 x102 -1 x2 <= +0
 c124: +1 x103 -1 x3 <= +0
 c125: +1 x104 -1 x4 <= +0
 c126: +1 x105 -1 x5 <= +0
 c127: +1 x106 -1 x6 <= +0
 c128: +1 x107 -1 x7 <= +0
 c129: +1 x108 -1 x8 <= +0
 c130: +1 x109 -1 x9 <= +0
 c131: +1 x110 -1 x0 <= +0
 c132: +1 x111 -1 x1 <= +0
 c133: +1 x112 -1 x2 <= +0
 c134: +1 x113 -1 x3 <= +0
 c135: +1 x114 -1 x4 <= +0
 c136: +1 x115 -1 x5 <= +0
 c137: +1 x116 -1 x6 <= +0
 c138: +1 x117 -1 x7 <= +0
 c139: +1 x118 -1 x8 <= +0
 c140: +1 x119 -1 x9 <= +0
 c141: +1 x120 -1 x0 <= +0
 c142: +1 x121 -1 x1 <= +0
 c143: +1 x122 -1 x2 <= +0
 c144: +1 x123 -1 x3 <= +0
 c145: +1 x124 -1 x4 <= +0
 c146: +1 x125 -1 x5 <= +0
 c147: +1 x126 -1 x6 <= +0
 c148: +1 x127 -1 x7 <= +0
 c149: +1 x128 -1 x8 <= +0
 c150: +1 x129 -1 x9 <= +0
 c151: +1 x130 -1 x0 <= +0
 c152: +1 x131 -1 x1 <= +0
 c153: +1 x132 -1 x2 <= +0
 c154: +1 x133 -1 x3 <= +0
 c155: +1 x134 -1 x4 <= +0
 c156: +1 x135 -1 x5 <= +0
 c157: +1 x136 -1 x6 <= +0
 c158: +1 x137 -1 x7 <= +0
 c159: +1 x138 -1 x8 <= +0
 c160: +1 x139 -1 x9 <= +0
 c161: +1 x140 -1 x0 <= +0
 c162: +1 x141 -1 x1 <= +0
 c163: +1 x142 -1 x2 <= +0
 c164: +1 x143 -1 x3 <= +0
 c165: +1 x144 -1 x4 <= +0
 c166: +1 x145 -1 x5 <= +0
 c167: +1 x146 -1 x6 <= +0
 c168: +1 x147 -1 x7 <= +0
 c169: +1 x148 -1 x8 <= +0
 c170: +1 x149 -1 x9 <= +0
 c171: +1 x150 -1 x0 <= +0
 c172: +1 x151 -1 x1 <= +0
 c173: +1 x152 -1 x2 <= +0
 c174: +1 x153 -1 x3 <= +0
 c175: +1 x154 -1 x4 <= +0
 c176: +1 x155 -1 x5 <= +0
 c177: +1 x156 -1 x6 <= +0
 c178: +1 x157 -1 x7 <= +0
 c179: +1 x158 -1 x8 <= +0
 c180: +1 x159 -1 x9 <= +0
 c181: +1 x160 -1 x0 <= +0
 c182: +1 x161 -1 x1 <= +0
 c183: +1 x162 -1 x2 <= +0
 c184: +1 x163 -1 x3 <= +0
 c185: +1 x164 -1 x4 <= +0
 c186: +1 x165 -1 x5 <= +0
 c187: +1 x166 -1 x6 <= +0
 c188: +1 x167 -1 x7 <= +0
 c189: +1 x168 -1 x8 <= +0
 c190: +1 x169 -1 x9 <= +0
 c191: +1 x170 -1 x0 <= +0
 c192: +1 x171 -1 x1 <= +0
 c193: +1 x172 -1 x2 <= +0
 c194: +1 x173 -1 x3 <= +0
 c195: +1 x174 -1 x4 <= +0
 c196: +1 x175 -1 x5 <= +0
 c197: +1 x176 -1 x6 <= +0
 c198: +1 x177 -1 x7 <= +0
 c199: +1 x178 -1 x8 <= +0
 c200: +1 x179 -1 x9 <= +0
 c201: +1 x180 -1 x0 <= +0
 c202: +1 x181 -1 x1 <= +0
 c203: +1 x182 -1 x2 <= +0
 c204: +1 x183 -1 x3 <= +0
 c205: +1 x184 -1 x4 <= +0
 c206: +1 x185 -1 x5 <= +0
 c207: +1 x186 -1 x6 <= +0
 c208: +1 x187 -1 x7 <= +0
 c209: +1 x188 -1 x8 <= +0
 c210: +1 x189 -1 x9 <= +0
 c211: +1 x190 -1 x0 <= +0
 c212: +1 x191 -1 x1 <= +0
 c213: +1 x192 -1 x2 <= +0
 c214: +1 x193 -1 x3 <= +0
 c215: +1 x194 -1 x4 <= +0
 c216: +1 x195 -1 x5 <= +0
 c217: +1 x196 -1 x6 <= +0
 c218: +1 x197 -1 x7 <= +0
 c219: +1 x198 -1 x8 <= +0
 c220: +1 x199 -1 x9 <= +0
 c221: +1 x200 -1 x0 <= +0
 c222: +1 x201 -1 x1 <= +0
 c223: +1 x202 -1 x2 <= +0
 c224: +1 x203 -1 x3 <= +0
 c225: +1 x204 -1 x4 <= +0
 c226: +1 x205 -1 x5 <= +0
 c227: +1 x206 -1 x6 <= +0
 c228: +1 x207 -1 x7 <= +0
 c229: +1 x208 -1 x8 <= +0
 c230: +1 x209 -1 x9 <= +0
Bounds
 0 <= x0 <= 1
 0 <= x1 <= 1
 0 <= x2 <= 1
 0 <= x3 <= 1
 0 <= x4 <= 1
 0 <= x5 <= 1
 0 <= x6 <= 1
 0 <= x7 <= 1
 0 <= x8 <= 1
 0 <= x9 <= 1
 0 <= x10 <= 1
 0 <= x11 <= 1
 0 <= x12 <= 1
 0 <= x13 <= 1
 0 <= x14 <= 1
 0 <= x15 <= 1
 0 <= x16 <= 1
 0 <= x17 <= 1
 0 <= x18 <= 1
 0 <= x19 <= 1
 0 <= x20 <= 1
 0 <= x21 <= 1
 0 <= x22 <= 1
 0 <= x23 <= 1
 0 <= x24 <= 1
 0 <= x25 <= 1
 0 <= x26 <= 1
 0 <= x27 <= 1
 0 <= x28 <= 1
 0 <= x29 <= 1
 0 <= x30 <= 1
 0 <= x31 <= 1
 0 <= x32 <= 1
 0 <= x33 <= 1
 0 <= x34 <= 1
 0 <= x35 <= 1
 0 <= x36 <= 1
 0 <= x37 <= 1
 0 <= x38 <= 1
 0 <= x39 <= 1
 0 <= x40 <= 1
 0 <= x41 <= 1
 0 <= x42 <= 1
 0 <= x43 <= 1
 0 <= x44 <= 1
 0 <= x45 <= 1
 0 <= x46 <= 1
 0 <= x47 <= 1
 0 <= x48 <= 1
 0 <= x49 <= 1
 0 <= x50 <= 1
 0 <= x51 <= 1
 0 <= x52 <= 1
 0 <= x53 <= 1
 0 <= x54 <= 1
 0 <= x55 <= 1
 0 <= x56 <= 1
 0 <= x57 <= 1
 0 <= x58 <= 1
 0 <= x59 <= 1
 0 <= x60 <= 1
 0 <= x61 <= 1
 0 <= x62 <= 1
 0 <= x63 <= 1
 0 <= x64 <= 1
 0 <= x65 <= 1
 0 <= x66 <= 1
 0 <= x67 <= 1
 0 <= x68 <= 1
 0 <= x69 <= 1
 0 <= x70 <= 1
 0 <= x71 <= 1
 0 <= x72 <= 1
 0 <= x73 <= 1
 0 <= x74 <= 1
 0 <= x75 <= 1
 0 <= x76 <= 1
 0 <= x77 <= 1
 0 <= x78 <= 1
 0 <= x79 <= 1
 0 <= x80 <= 1
 0 <= x81 <= 1
 0 <= x82 <= 1
 0 <= x83 <= 1
 0 <= x84 <= 1
 0 <= x85 <= 1
 0 <= x86 <= 1
 0 <= x87 <= 1
 0 <= x88 <= 1
 0 <= x89 <= 1
 0 <= x90 <= 1
 0 <= x91 <= 1
 0 <= x92 <= 1
 0 <= x93 <= 1
 0 <= x94 <= 1
 0 <= x95 <= 1
 0 <= x96 <= 1
 0 <= x97 <= 1
 0 <= x98 <= 1
 0 <= x99 <= 1
 0 <= x100 <= 1
 0 <= x101 <= 1
 0 <= x102 <= 1
 0 <= x103 <= 1
 0 <= x104 <= 1
 0 <= x105 <= 1
 0 <= x106 <= 1
 0 <= x107 <= 1
 0 <= x108 <= 1
 0 <= x109 <= 1
 0 <= x110 <= 1
 0 <= x111 <= 1
 0 <= x112 <= 1
 0 <= x113 <= 1
 0 <= x114 <= 1
 0 <= x115 <= 1
 0 <= x116 <= 1
 0 <= x117 <= 1
 0 <= x118 <= 1
 0 <= x119 <= 1
 0 <= x120 <= 1
 0 <= x121 <= 1
 0 <= x122 <= 1
 0 <= x123 <= 1
 0 <= x124 <= 1
 0 <= x125 <= 1
 0 <= x126 <= 1
 0 <= x127 <= 1
 0 <= x128 <= 1
 0 <= x129 <= 1
 0 <= x130 <= 1
 0 <= x131 <= 1
 0 <= x132 <= 1
 0 <= x133 <= 1
 0 <= x134 <= 1
 0 <= x135 <= 1
 0 <= x136 <= 1
 0 <= x137 <= 1
 0 <= x138 <= 1
 0 <= x139 <= 1
 0 <= x140 <= 1
 0 <= x141 <= 1
 0 <= x142 <= 1
 0 <= x143 <= 1
 0 <= x144 <= 1
 0 <= x145 <= 1
 0 <= x146 <= 1
 0 <= x147 <= 1
 0 <= x148 <= 1
 0 <= x149 <= 1
 0 <= x150 <= 1
 0 <= x151 <= 1
 0 <= x152 <= 1
 0 <= x153 <= 1
 0 <= x154 <= 1
 0 <= x155 <= 1
 0 <= x156 <= 1
 0 <= x157 <= 1
 0 <= x158 <= 1
 0 <= x159 <= 1
 0 <= x160 <= 1
 0 <= x161 <= 1
 0 <= x162 <= 1
 0 <= x163 <= 1
 0 <= x164 <= 1
 0 <= x165 <= 1
 0 <= x166 <= 1
 0 <= x167 <= 1
 0 <= x168 <= 1
 0 <= x169 <= 1
 0 <= x170 <= 1
 0 <= x171 <= 1
 0 <= x172 <= 1
 0 <= x173 <= 1
 0 <= x174 <= 1
 0 <= x175 <= 1
 0 <= x176 <= 1
 0 <= x177 <= 1
 0 <= x178 <= 1
 0 <= x179 <= 1
 0 <= x180 <= 1
 0 <= x181 <= 1
 0 <= x182 <= 1
 0 <= x183 <= 1
 0 <= x184 <= 1
 0 <= x185 <= 1
 0 <= x186 <= 1
 0 <= x187 <= 1
 0 <= x188 <= 1
 0 <= x189 <= 1
 0 <= x190 <= 1
 0 <= x191 <= 1
 0 <= x192 <= 1
 0 <= x193 <= 1
 0 <= x194 <= 1
 0 <= x195 <= 1
 0 <= x196 <= 1
 0 <= x197 <= 1
 0 <= x198 <= 1
 0 <= x199 <= 1
 0 <= x200 <= 1
 0 <= x201 <= 1
 0 <= x202 <= 1
 0 <= x203 <= 1
 0 <= x204 <= 1
 0 <= x205 <= 1
 0 <= x206 <= 1
 0 <= x207 <= 1
 0 <= x208 <= 1
 0 <= x209 <= 1
Binaries
 x0 x1 x2 x3 x4 x5 x6 x7 x8 x9 x10 x11 x12 x13 x14 x15 x16 x17 x18 x19 x20 x21 x22 x23 x24 x25 x26 x27
 x28 x29 x30 x31 x32 x33 x34 x35 x36 x37 x38 x39 x40 x41 x42 x43 x44 x45 x46 x47 x48 x49 x50 x51 x52 x53
 x54 x55 x56 x57 x58 x59 x60 x61 x62 x63 x64 x65 x66 x67 x68 x69 x70 x71 x72 x73 x74 x75 x76 x77 x78 x79
 x80 x81 x82 x83 x84 x85 x86 x87 x88 x89 x90 x91 x92 x93 x94 x95 x96 x97 x98 x99 x100 x101 x102 x103 x104
 x105 x106 x107 x108 x109 x110 x111 x112 x113 x114 x115 x116 x117 x118 x119 x120 x121 x122 x123 x124 x125
 x126 x127 x128 x129 x130 x131 x132 x133 x134 x135 x136 x137 x138 x139 x140 x141 x142 x143 x144 x145 x146
 x147 x148 x149 x150 x151 x152 x153 x154 x155 x156 x157 x158 x159 x160 x161 x162 x163 x164 x165 x166 x167
 x168 x169 x170 x171 x172 x173 x174 x175 x176 x177 x178 x179 x180 x181 x182 x183 x184 x185 x186 x187 x188
 x189 x190 x191 x192 x193 x194 x195 x196 x197 x198 x199 x200 x201 x202 x203 x204 x205 x206 x207 x208 x209
End
